WARNING: for repeatability, setting FPU to use double precision
============================[ Problem Statistics ]=============================
|                                                                             |
|  Number of variables:           100                                         |
|  Number of clauses:             449                                         |
|  Parse time:                   0.00 s                                       |
|  Eliminated clauses:           0.00 Mb                                      |
|  Simplification time:          0.00 s                                       |
|                                                                             |
============================[ Search Statistics ]==============================
| Conflicts |          ORIGINAL         |          LEARNT          | Progress |
|           |    Vars  Clauses Literals |    Limit  Clauses Lit/Cl |          |
===============================================================================
|       100 |      97      446     1358 |      163      100      7 |  0.011 % |
===============================================================================
restarts              : 3
conflicts             : 223            (70391 /sec)
decisions             : 276            (0.00 % random) (87121 /sec)
propagations          : 4897           (1545770 /sec)
conflict literals     : 1413           (16.93 % deleted)
Memory used           : 13.00 MB
CPU time              : 0.003168 s

SATISFIABLE
